10
5
155050
0
0
47 45 41 50 51
1
0
44 46 45 50 57
2
0
45 47 44 50 56
3
0
45 45 45 51 51
4
0
47 49 44 48 61
5
0
46 45 46 45 54
6
0
47 41 46 52 60
7
0
44 43 46 46 54
8
0
44 46 41 49 56
9
0
46 48 47 45 57
